50
    25    99    48    26    38    56     7    20    51    80     3     4    36    95    15    69     2    85    10    21     2     4    48    84    28    69    81    97    12    65    47    12    29    41    79     1    93    12    98    47    57    57    18    52    19    24    41    32    13    25
     3     6    10     8     5     5     3     5     8     3     4     6    10     7     4     2     3     9     2     6    10     6     3    10     8     8     2     8     4     2     9    10     9     6    10     8     4     8     2     3     5     6     4     7     8     5     8     8     2     4
  1292  1368  1122  1442  1106  1355  1186  1333  1300  1410  1301  1419  1231  1427  1040  1131  1130  1085  1144  1389  1292  1128  1153  1221  1053  1130  1390  1220  1283  1189  1418  1411  1302  1341  1191  1389  1367  1191  1173  1087  1245  1395  1416  1326  1045  1220  1267  1273  1449  1268
